
******************************************************************************
This program contains Ipopt, a library for large-scale nonlinear optimization.
 Ipopt is released as open source code under the Eclipse Public License (EPL).
         For more information visit http://projects.coin-or.org/Ipopt
******************************************************************************

This is Ipopt version 3.12.6, running with linear solver ma57.

Number of nonzeros in equality constraint Jacobian...:        0
Number of nonzeros in inequality constraint Jacobian.:    11998
Number of nonzeros in Lagrangian Hessian.............:     8000

Total number of variables............................:     6001
                     variables with only lower bounds:        0
                variables with lower and upper bounds:        0
                     variables with only upper bounds:        0
Total number of equality constraints.................:        0
Total number of inequality constraints...............:     2000
        inequality constraints with only lower bounds:        0
   inequality constraints with lower and upper bounds:        0
        inequality constraints with only upper bounds:     2000

iter    objective    inf_pr   inf_du lg(mu)  ||d||  lg(rg) alpha_du alpha_pr  ls
   0  0.0000000e+00 1.00e+00 9.99e-01  -1.0 0.00e+00    -  0.00e+00 0.00e+00   0
   1 -6.0184870e+00 1.38e+02 6.44e-02  -1.0 6.06e+00  -4.0 9.90e-01 1.00e+00f  1
   2 -1.3924954e+01 4.16e+01 1.38e+00  -1.0 9.48e+00  -1.8 1.00e+00 1.00e+00f  1
   3 -2.5084656e+01 1.70e+03 3.35e+01  -1.0 1.12e+01  -1.3 1.00e+00 1.00e+00h  1
   4 -3.9351243e+01 1.89e+04 2.68e+02  -1.0 2.75e+01  -1.8 1.00e+00 7.82e-01h  1
   5 -3.9113181e+01 1.53e+04 2.51e+02  -1.0 9.18e+00   1.3 1.00e+00 2.05e-01h  1
   6 -3.8980439e+01 1.41e+04 2.51e+02  -1.0 1.12e+02   0.8 1.00e+00 4.16e-02h  1
   7 -3.5830920e+01 3.80e+03 1.37e+02  -1.0 8.15e+00   1.3 1.00e+00 1.00e+00h  1
   8 -3.5769861e+01 1.12e+03 4.46e+01  -1.0 4.89e+00   0.8 1.00e+00 1.00e+00h  1
   9 -3.5916735e+01 4.92e+02 6.83e+00  -1.0 2.97e+00   0.3 1.00e+00 1.00e+00h  1
iter    objective    inf_pr   inf_du lg(mu)  ||d||  lg(rg) alpha_du alpha_pr  ls
  10 -3.6302144e+01 1.34e+02 5.32e+00  -1.0 1.13e+01  -0.2 1.00e+00 1.00e+00h  1
  11 -3.7527442e+01 4.56e+01 1.66e+00  -1.0 6.78e+00  -0.6 1.00e+00 1.00e+00h  1
  12 -3.8712211e+01 4.09e+01 2.41e+00  -1.0 7.29e+00  -1.1 1.00e+00 7.36e-01h  1
  13 -3.8485388e+01 3.61e+01 2.33e+01  -1.0 9.27e+00   1.1 1.00e+00 2.12e-01h  1
  14 -3.8054087e+01 3.57e+01 7.13e+01  -1.0 2.94e+01   1.5 1.56e-03 6.16e-04H  1
  15 -3.7783945e+01 3.54e+01 6.64e+03  -1.0 3.46e+01   2.0 1.00e+00 7.81e-03f  8
  16 -3.7509745e+01 3.51e+01 7.08e+03  -1.0 3.51e+01   2.4 5.11e-02 7.81e-03h  8
  17 -3.7279934e+01 3.49e+01 4.76e+04  -1.0 3.49e+01   2.8 1.00e+00 6.58e-03h  6
  18 -3.7051035e+01 3.47e+01 5.22e+04  -1.0 3.47e+01   3.2 6.90e-02 6.59e-03h  7
  19 -3.6872567e+01 3.45e+01 3.32e+05  -1.0 3.45e+01   3.7 1.00e+00 5.17e-03h  6
iter    objective    inf_pr   inf_du lg(mu)  ||d||  lg(rg) alpha_du alpha_pr  ls
  20 -3.6667704e+01 3.43e+01 3.74e+05  -1.0 3.43e+01   4.1 8.60e-02 5.96e-03h  7
  21 -3.6492568e+01 3.41e+01 2.30e+06  -1.0 3.42e+01   4.5 1.00e+00 5.13e-03h  6
  22 -3.6291962e+01 3.39e+01 2.67e+06  -1.0 3.40e+01   4.9 1.08e-01 5.90e-03h  7
  23 -3.6112991e+01 3.37e+01 1.58e+07  -1.0 3.38e+01   5.4 1.00e+00 5.29e-03h  6
  24 -3.5914189e+01 3.35e+01 1.92e+07  -1.0 3.37e+01   5.8 1.38e-01 5.91e-03h  7
  25 -2.9985594e+01 2.76e+01 8.96e+07  -1.0 3.35e+01   6.2 1.00e+00 1.77e-01w  1
  26 -2.9760925e+01 2.74e+01 1.33e+10  -1.0 2.78e+01   8.5 1.00e+00 8.08e-03w  1
  27 -2.1859791e+00 1.27e+01 2.68e+09  -1.0 2.76e+01   8.0 1.00e+00 1.00e+00w  1
  28 -3.5728921e+01 3.33e+01 1.08e+08  -1.0 1.22e+00  10.2 1.00e+00 5.53e-03h  5
  29 -3.5718583e+01 3.33e+01 6.10e+10  -1.0 3.33e+01   9.7 1.75e-01 3.11e-04h  1
iter    objective    inf_pr   inf_du lg(mu)  ||d||  lg(rg) alpha_du alpha_pr  ls
  30 -3.5447072e+01 3.30e+01 1.15e+11  -1.0 3.33e+01   9.3 1.00e+00 8.16e-03h  7
  31 -3.5249565e+01 3.29e+01 1.53e+11  -1.0 3.30e+01   9.7 2.19e-01 5.98e-03h  7
  32 -3.5047333e+01 3.26e+01 7.78e+11  -1.0 3.29e+01  10.1 1.00e+00 6.15e-03h  6
  33 -3.4854454e+01 3.25e+01 1.13e+12  -1.0 3.27e+01  10.5 2.87e-01 5.90e-03h  7
  34 -3.4640394e+01 3.22e+01 5.35e+12  -1.0 3.25e+01  11.0 1.00e+00 6.59e-03h  6
  35 -3.4450087e+01 3.21e+01 8.50e+12  -1.0 3.23e+01  11.4 3.68e-01 5.89e-03h  7
Reallocating memory for MA57: lfact (213812)
Reallocating memory for MA57: lfact (401858)
Reallocating memory for MA57: lfact (772275)
Reallocating memory for MA57: lfact (1483951)
Reallocating memory for MA57: lfact (2869996)
Reallocating memory for MA57: lfact (5535990)
Reallocating memory for MA57: lfact (10672993)
Reallocating memory for MA57: lfact (12436053)
  36 -3.4220288e+01 3.18e+01 3.69e+13  -1.0 3.21e+01  11.8 1.00e+00 7.16e-03h  6
  37 -3.4032560e+01 3.16e+01 6.46e+13  -1.0 3.19e+01  12.2 4.64e-01 5.89e-03h  7
  38 -3.3784162e+01 3.14e+01 2.56e+14  -1.0 3.17e+01  12.7 1.00e+00 7.83e-03h  6
  39 -3.3413913e+01 3.10e+01 4.90e+14  -1.0 3.15e+01  13.1 5.74e-01 1.18e-02h  6
iter    objective    inf_pr   inf_du lg(mu)  ||d||  lg(rg) alpha_du alpha_pr  ls
  40 -2.4744722e+01 2.24e+01 1.28e+15  -1.0 3.11e+01  13.5 1.00e+00 2.79e-01w  1
  41 -2.3260804e+01 2.09e+01 2.47e+16  -1.0 2.26e+01  14.8 1.00e+00 6.55e-02w  1
  42 -1.4894444e+01 1.26e+01 3.94e+16  -1.0 2.12e+01  15.3 1.00e+00 3.95e-01w  1
  43 -3.3143001e+01 3.07e+01 1.75e+15  -1.0 1.27e+01  15.7 1.00e+00 8.71e-03h  5
  44 -3.2837581e+01 3.04e+01 4.33e+16  -1.0 3.09e+01  15.2 7.37e-01 9.90e-03h  2
  45 -3.2598776e+01 3.02e+01 2.80e+16  -1.0 3.06e+01  14.7 1.00e+00 7.81e-03h  8
  46 -3.2244523e+01 2.99e+01 4.39e+16  -1.0 3.03e+01  15.2 9.70e-01 1.17e-02h  6
  47 -3.2034421e+01 2.96e+01 4.39e+16  -1.0 3.00e+01  15.6 1.00e+00 7.01e-03h  6
  48 -3.1708865e+01 2.93e+01 4.48e+16  -1.0 2.98e+01  16.0 1.00e+00 1.09e-02h  4
  49 -3.1429628e+01 2.90e+01 4.93e+16  -1.0 2.95e+01  16.4 1.00e+00 9.48e-03h  3
iter    objective    inf_pr   inf_du lg(mu)  ||d||  lg(rg) alpha_du alpha_pr  ls
  50 -3.1150919e+01 2.88e+01 8.44e+16  -1.0 2.92e+01  16.9 1.00e+00 9.55e-03h  2
  51 -3.0736486e+01 2.84e+01 9.63e+18  -1.0 2.89e+01  17.3 1.00e+00 1.43e-02h  1
  52 -3.0400405e+01 2.80e+01 1.42e+19  -1.0 2.85e+01  17.7 1.00e+00 1.18e-02h  6
  53 -3.0023589e+01 2.76e+01 1.42e+19  -1.0 2.82e+01  18.2 1.00e+00 1.34e-02h  5
  54 -2.9722092e+01 2.73e+01 1.45e+19  -1.0 2.78e+01  18.6 1.00e+00 1.08e-02h  4

Number of Iterations....: 54

                                   (scaled)                 (unscaled)
Objective...............:  -2.9722091629728148e+01   -2.9722091629728148e+01
Dual infeasibility......:   1.4534234909102420e+19    1.4534234909102420e+19
Constraint violation....:   2.7345546896842883e+01    2.7345546896842883e+01
Complementarity.........:   1.0000000000000010e+09    1.0000000000000010e+09
Overall NLP error.......:   2.5736613534060301e+05    1.4534234909102420e+19


Number of objective function evaluations             = 288
Number of objective gradient evaluations             = 55
Number of equality constraint evaluations            = 0
Number of inequality constraint evaluations          = 288
Number of equality constraint Jacobian evaluations   = 0
Number of inequality constraint Jacobian evaluations = 55
Number of Lagrangian Hessian evaluations             = 54
Total CPU secs in IPOPT (w/o function evaluations)   =    308.213
Total CPU secs in NLP function evaluations           =      0.120

EXIT: Maximum CPU time exceeded.
Note: The following floating-point exceptions are signalling: IEEE_UNDERFLOW_FLAG IEEE_DENORMAL

************************ CUTEst statistics ************************


 Package used            :  IPOPT
 Problem                 :  COSHFUN   
 # variables             =            6001
 # constraints           =            2000
 # objective functions   =        0.3440000E+03
 # objective gradients   =        0.5600000E+02
 # objective Hessians    =        0.5500000E+02
 # Hessian-vector prdct  =        0.0000000E+00
 # constraints functions =        0.3450000E+03
 # constraints gradients =        0.5700000E+02
 # constraints Hessians  =        0.5500000E+02
 Exit code               =              -4
 Final f                 =   0.0000000E+00
 Set up time             =            0.07 seconds
 Solve time              =          625.27 seconds


******************************************************************

System Time =     240.6900024414 s.
